# Generated by ConicBenchmarkUtilities.jl
VER
2

OBJSENSE
MIN

VAR
121 1
F 121

INT
30
21
22
23
24
25
26
27
28
29
30
31
32
33
34
35
36
37
38
39
40
41
42
43
44
45
46
47
48
49
50

CON
363 323
L= 1
L= 1
L= 1
L= 1
L= 1
L= 1
L= 1
L= 1
L= 1
L= 1
L= 1
L= 1
L= 1
L= 1
L= 1
L= 1
L= 1
L= 1
EXP 3
L+ 1
L+ 1
L+ 1
EXP 3
L+ 1
L+ 1
L+ 1
L+ 1
L+ 1
L+ 1
L+ 1
EXP 3
L+ 1
L+ 1
L+ 1
L+ 1
L+ 1
L+ 1
L+ 1
L+ 1
L+ 1
L+ 1
EXP 3
L+ 1
L+ 1
L+ 1
EXP 3
L+ 1
L+ 1
L+ 1
EXP 3
L+ 1
L+ 1
L+ 1
L+ 1
L+ 1
L+ 1
L+ 1
L+ 1
L+ 1
L+ 1
L+ 1
EXP 3
L+ 1
L+ 1
L+ 1
L+ 1
L+ 1
L+ 1
L+ 1
L+ 1
L+ 1
L+ 1
EXP 3
L+ 1
L+ 1
L+ 1
EXP 3
L+ 1
L+ 1
L+ 1
EXP 3
L+ 1
EXP 3
L+ 1
L+ 1
L+ 1
L+ 1
L+ 1
L+ 1
L+ 1
L+ 1
L+ 1
L+ 1
L+ 1
L+ 1
EXP 3
L+ 1
L+ 1
L+ 1
EXP 3
L+ 1
L+ 1
L+ 1
EXP 3
L+ 1
L+ 1
L+ 1
EXP 3
L+ 1
L+ 1
L+ 1
EXP 3
L+ 1
L+ 1
L+ 1
L+ 1
L+ 1
L+ 1
L+ 1
EXP 3
L+ 1
L+ 1
L+ 1
L+ 1
L+ 1
L+ 1
L+ 1
L+ 1
L+ 1
L+ 1
EXP 3
L+ 1
L+ 1
L+ 1
EXP 3
L+ 1
L+ 1
L+ 1
EXP 3
L+ 1
L+ 1
L+ 1
L+ 1
L+ 1
L+ 1
L+ 1
L+ 1
L+ 1
L+ 1
L+ 1
L= 1
L+ 1
L+ 1
L+ 1
L+ 1
L+ 1
L+ 1
L+ 1
L+ 1
L+ 1
L+ 1
L+ 1
L+ 1
L+ 1
L+ 1
L+ 1
L+ 1
L+ 1
L+ 1
L+ 1
L+ 1
L+ 1
L+ 1
L+ 1
L+ 1
L+ 1
L+ 1
L+ 1
L+ 1
L+ 1
L+ 1
L+ 1
L+ 1
L+ 1
L+ 1
L+ 1
L+ 1
L+ 1
L+ 1
L+ 1
L+ 1
L+ 1
L+ 1
L+ 1
L+ 1
L+ 1
L+ 1
L+ 1
L+ 1
L+ 1
L+ 1
L+ 1
L+ 1
L+ 1
L+ 1
L+ 1
L+ 1
L+ 1
L+ 1
L+ 1
L+ 1
L+ 1
L+ 1
L+ 1
L+ 1
L+ 1
L+ 1
L+ 1
L+ 1
L+ 1
L+ 1
L+ 1
L+ 1
L+ 1
L+ 1
L+ 1
L+ 1
L+ 1
L+ 1
L+ 1
L+ 1
L+ 1
L+ 1
L+ 1
L+ 1
L+ 1
L+ 1
L+ 1
L+ 1
L+ 1
L+ 1
L+ 1
L+ 1
L+ 1
L+ 1
L+ 1
L+ 1
L+ 1
L+ 1
L+ 1
L+ 1
L+ 1
L+ 1
L+ 1
L+ 1
L+ 1
L+ 1
L+ 1
L+ 1
L+ 1
L+ 1
L+ 1
L+ 1
L+ 1
L+ 1
L+ 1
L+ 1
L+ 1
L+ 1
L+ 1
L+ 1
L+ 1
L+ 1
L+ 1
L+ 1
L+ 1
L+ 1
L+ 1
L+ 1
L+ 1
L+ 1
L+ 1
L+ 1
L+ 1
L+ 1
L+ 1
L+ 1
L+ 1
L+ 1
L+ 1
L+ 1
L+ 1
L+ 1
L+ 1
L+ 1
L+ 1
L+ 1
L+ 1
L+ 1
L+ 1
L+ 1
L+ 1
L+ 1
L+ 1
L+ 1
L+ 1
L+ 1
L+ 1
L+ 1
L+ 1
L+ 1
L+ 1
L+ 1
L+ 1
L+ 1
L+ 1
L+ 1
L+ 1
L+ 1
L+ 1
L+ 1
L+ 1
L+ 1

OBJACOORD
1
51 -1.0

ACOORD
642
0 0 -1.0
1 0 1.0
228 0 1.0
229 0 -1.0
0 1 5.0
3 1 -1.0
235 1 1.0
0 2 -2.0
42 2 0.5
43 2 -0.5
45 2 -1.0
240 2 1.0
241 2 -1.0
0 3 -10.0
81 3 1.0
82 3 -1.0
84 3 -1.0
258 3 1.0
259 3 -1.0
0 4 -5.0
8 4 -1.0
260 4 1.0
261 4 -1.0
0 5 40.0
79 5 -1.0
80 5 1.0
81 5 -1.0
82 5 1.0
85 5 -1.0
268 5 1.0
0 6 15.0
89 6 -1.0
91 6 -1.0
269 6 1.0
0 7 10.0
95 7 -1.0
97 7 -1.0
270 7 1.0
0 8 30.0
101 8 -1.0
105 8 -1.0
108 8 -1.0
271 8 1.0
0 9 35.0
109 9 -1.0
110 9 1.0
112 9 -1.0
272 9 1.0
0 10 20.0
113 10 -1.0
114 10 1.0
116 10 -1.0
273 10 1.0
0 11 25.0
120 11 -1.0
122 11 -1.0
274 11 1.0
0 12 15.0
126 12 -1.0
128 12 -1.0
275 12 1.0
0 13 30.0
14 13 -1.0
283 13 1.0
0 14 -1.0
159 14 0.5
160 14 -0.5
162 14 -1.0
288 14 1.0
289 14 -1.0
0 15 80.0
17 15 -1.0
297 15 1.0
0 16 285.0
167 16 -1.0
169 16 -1.0
298 16 1.0
0 17 290.0
173 17 -1.0
175 17 -1.0
299 17 1.0
0 18 280.0
179 18 -1.0
181 18 -1.0
300 18 1.0
0 19 290.0
182 19 -1.0
183 19 1.0
185 19 -1.0
301 19 1.0
0 20 350.0
186 20 -1.0
187 20 1.0
189 20 -1.0
302 20 1.0
0 21 -5.0
21 21 -1.0
22 21 40.0
23 21 3.71357206670431
190 21 1.0
200 21 1.0
201 21 1.0
202 21 1.0
303 21 1.0
304 21 -1.0
0 22 -8.0
27 22 -1.0
28 22 40.0
29 22 4.45628648004517
190 22 1.0
200 22 1.0
201 22 1.0
202 22 1.0
305 22 1.0
306 22 -1.0
0 23 -6.0
30 23 -1.0
31 23 -1.0
32 23 4.45628648004517
33 23 3.34221486003388
191 23 -1.0
200 23 -1.0
203 23 1.0
204 23 1.0
307 23 1.0
308 23 -1.0
0 24 -10.0
37 24 -1.0
38 24 4.45628648004517
39 24 2.54515263975353
194 24 -1.0
201 24 -1.0
205 24 1.0
309 24 1.0
310 24 -1.0
0 25 -6.0
40 25 -1.0
41 25 -1.0
42 25 -1.0
43 25 -1.0
44 25 4.45628648004517
45 25 30.0
46 25 15.0
196 25 -1.0
202 25 -1.0
206 25 1.0
207 25 1.0
208 25 1.0
311 25 1.0
312 25 -1.0
0 26 -7.0
50 26 -1.0
51 26 3.34221486003388
52 26 1.83548069293539
191 26 1.0
192 26 -1.0
203 26 -1.0
209 26 1.0
313 26 1.0
314 26 -1.0
0 27 -4.0
56 27 -1.0
57 27 3.34221486003388
58 27 1.32154609891348
191 27 1.0
193 27 -1.0
204 27 -1.0
210 27 1.0
315 27 1.0
316 27 -1.0
0 28 -5.0
62 28 -1.0
63 28 2.54515263975353
64 28 1.26558121681553
194 28 1.0
195 28 -1.0
205 28 -1.0
211 28 1.0
212 28 1.0
317 28 1.0
318 28 -1.0
0 29 -2.0
65 29 -1.0
66 29 -1.0
67 29 15.0
68 29 13.5
196 29 1.0
197 29 -1.0
206 29 -1.0
319 29 1.0
320 29 -1.0
0 30 -4.0
69 30 -1.0
70 30 -1.0
71 30 15.0
72 30 9.0
196 30 1.0
198 30 -1.0
207 30 -1.0
213 30 1.0
214 30 1.0
321 30 1.0
322 30 -1.0
0 31 -3.0
76 31 -1.0
77 31 15.0
78 31 3.04984759446376
196 31 1.0
199 31 -1.0
208 31 -1.0
215 31 1.0
216 31 1.0
217 31 1.0
323 31 1.0
324 31 -1.0
0 32 -7.0
79 32 -1.0
80 32 -1.0
81 32 -1.0
82 32 -1.0
83 32 1.83548069293539
84 32 20.0
85 32 20.0
192 32 1.0
209 32 -1.0
325 32 1.0
326 32 -1.0
0 33 -3.0
89 33 -1.0
90 33 1.32154609891348
91 33 0.842233385663186
193 33 1.0
210 33 -1.0
327 33 1.0
328 33 -1.0
0 34 -2.0
95 34 -1.0
96 34 1.26558121681553
97 34 0.572481933717686
195 34 1.0
211 34 -1.0
329 34 1.0
330 34 -1.0
0 35 -4.0
101 35 -1.0
105 35 -1.0
106 35 1.26558121681553
107 35 33.5
108 35 2.30162356062425
195 35 1.0
197 35 1.0
212 35 -1.0
331 35 1.0
332 35 -1.0
0 36 -2.0
109 36 -1.0
110 36 -1.0
111 36 9.0
112 36 9.0
198 36 1.0
213 36 -1.0
333 36 1.0
334 36 -1.0
0 37 -3.0
113 37 -1.0
114 37 -1.0
115 37 9.0
116 37 9.0
198 37 1.0
214 37 -1.0
335 37 1.0
336 37 -1.0
0 38 -5.0
120 38 -1.0
121 38 3.04984759446376
122 38 1.04900943706034
199 38 1.0
215 38 -1.0
337 38 1.0
338 38 -1.0
0 39 -2.0
126 39 -1.0
127 39 3.04984759446376
128 39 1.11894339953103
199 39 1.0
216 39 -1.0
339 39 1.0
340 39 -1.0
0 40 -1.0
132 40 -1.0
133 40 3.04984759446376
134 40 1.18887736200171
199 40 1.0
217 40 -1.0
218 40 -1.0
221 40 1.0
222 40 1.0
341 40 1.0
342 40 -1.0
0 41 -2.0
138 41 -1.0
139 41 1.18887736200171
140 41 0.78338879230327
218 41 1.0
221 41 -1.0
343 41 1.0
344 41 -1.0
0 42 -9.0
144 42 -1.0
145 42 1.18887736200171
146 42 0.940066550763924
218 42 1.0
222 42 -1.0
345 42 1.0
346 42 -1.0
0 43 -5.0
147 43 -1.0
148 43 -1.0
149 43 0.940066550763924
150 43 0.705049913072943
219 43 -1.0
223 43 1.0
224 43 1.0
347 43 1.0
348 43 -1.0
0 44 -2.0
154 44 -1.0
155 44 0.940066550763924
156 44 0.994083415506506
220 44 -1.0
225 44 1.0
349 44 1.0
350 44 -1.0
0 45 -10.0
157 45 -1.0
158 45 -1.0
159 45 -1.0
160 45 -1.0
161 45 0.940066550763924
162 45 30.0
163 45 15.0
226 45 1.0
227 45 1.0
351 45 1.0
352 45 -1.0
0 46 -4.0
167 46 -1.0
168 46 0.705049913072943
169 46 0.666992981045719
219 46 1.0
223 46 -1.0
353 46 1.0
354 46 -1.0
0 47 -7.0
173 47 -1.0
174 47 0.705049913072943
175 47 0.480234946352917
219 47 1.0
224 47 -1.0
355 47 1.0
356 47 -1.0
0 48 -4.0
179 48 -1.0
180 48 0.994083415506506
181 48 0.690184503917672
220 48 1.0
225 48 -1.0
357 48 1.0
358 48 -1.0
0 49 -2.0
182 49 -1.0
183 49 -1.0
184 49 15.0
185 49 13.5
226 49 -1.0
359 49 1.0
360 49 -1.0
0 50 -8.0
186 50 -1.0
187 50 -1.0
188 50 15.0
189 50 9.0
227 50 -1.0
361 50 1.0
362 50 -1.0
0 51 -1.0
1 52 -1.0
18 52 1.0
22 52 -1.0
230 52 1.0
1 53 -1.0
24 53 1.0
28 53 -1.0
231 53 1.0
2 54 -1.0
21 54 -1.0
23 54 -1.0
232 54 1.0
2 55 -1.0
27 55 -1.0
29 55 -1.0
233 55 1.0
2 56 1.0
3 56 1.0
234 56 1.0
3 57 -1.0
4 57 1.0
236 57 1.0
4 58 -1.0
30 58 0.75
31 58 -0.75
32 58 -1.0
237 58 1.0
4 59 -1.0
34 59 1.0
38 59 -1.0
238 59 1.0
4 60 -1.0
40 60 1.0
41 60 -1.0
44 60 -1.0
239 60 1.0
5 61 1.0
30 61 -1.0
31 61 1.0
33 61 -1.0
242 61 1.0
5 62 -1.0
47 62 1.0
51 62 -1.0
245 62 1.0
5 63 -1.0
53 63 1.0
57 63 -1.0
246 63 1.0
6 64 1.0
40 64 -1.0
41 64 1.0
42 64 -1.0
43 64 1.0
46 64 -1.0
244 64 1.0
6 65 -1.0
65 65 0.9
66 65 -0.9
67 65 -1.0
247 65 1.0
6 66 -1.0
69 66 0.6
70 66 -0.6
71 66 -1.0
248 66 1.0
6 67 -1.0
73 67 1.0
77 67 -1.0
249 67 1.0
7 68 1.0
62 68 -1.0
64 68 -1.0
252 68 1.0
7 69 -1.0
92 69 1.0
96 69 -1.0
256 69 1.0
7 70 -1.0
98 70 1.0
106 70 -1.0
257 70 1.0
8 71 -1.0
65 71 -1.0
66 71 1.0
68 71 -1.0
253 71 1.0
8 72 1.0
102 72 1.0
107 72 -1.0
262 72 1.0
9 73 1.0
69 73 -1.0
70 73 1.0
72 73 -1.0
254 73 1.0
9 74 -1.0
109 74 1.0
110 74 -1.0
111 74 -1.0
263 74 1.0
9 75 -1.0
113 75 1.0
114 75 -1.0
115 75 -1.0
264 75 1.0
10 76 1.0
76 76 -1.0
78 76 -1.0
255 76 1.0
10 77 -1.0
117 77 1.0
121 77 -1.0
265 77 1.0
10 78 -1.0
123 78 1.0
127 78 -1.0
266 78 1.0
10 79 -1.0
129 79 1.0
133 79 -1.0
267 79 1.0
11 80 1.0
132 80 -1.0
134 80 -1.0
276 80 1.0
11 81 -1.0
12 81 1.0
277 81 1.0
12 82 -1.0
135 82 1.0
139 82 -1.0
278 82 1.0
12 83 -1.0
141 83 1.0
145 83 -1.0
279 83 1.0
13 84 -1.0
138 84 -1.0
140 84 -1.0
280 84 1.0
13 85 -1.0
144 85 -1.0
146 85 -1.0
281 85 1.0
13 86 1.0
14 86 1.0
282 86 1.0
14 87 -1.0
15 87 1.0
284 87 1.0
15 88 -1.0
147 88 0.75
148 88 -0.75
149 88 -1.0
285 88 1.0
15 89 -1.0
151 89 1.0
155 89 -1.0
286 89 1.0
15 90 -1.0
157 90 1.0
158 90 -1.0
161 90 -1.0
287 90 1.0
16 91 1.0
147 91 -1.0
148 91 1.0
150 91 -1.0
290 91 1.0
16 92 -1.0
164 92 1.0
168 92 -1.0
293 92 1.0
16 93 -1.0
170 93 1.0
174 93 -1.0
294 93 1.0
17 94 1.0
157 94 -1.0
158 94 1.0
159 94 -1.0
160 94 1.0
163 94 -1.0
292 94 1.0
17 95 -1.0
182 95 0.9
183 95 -0.9
184 95 -1.0
295 95 1.0
17 96 -1.0
186 96 0.6
187 96 -0.6
188 96 -1.0
296 96 1.0
20 97 1.0
21 97 1.0
26 98 1.0
27 98 1.2
36 99 1.0
37 99 1.5
37 100 -1.0
39 100 -1.0
59 100 1.0
63 100 -1.0
243 100 1.0
49 101 1.0
50 101 1.25
50 102 -1.0
52 102 -1.0
79 102 0.9
80 102 -0.9
83 102 -1.0
250 102 1.0
55 103 1.0
56 103 0.9
56 104 -1.0
58 104 -1.0
86 104 1.0
90 104 -1.0
251 104 1.0
61 105 1.0
62 105 1.0
75 106 1.0
76 106 1.1
88 107 1.0
89 107 1.0
94 108 1.0
95 108 0.7
100 109 1.0
101 109 0.65
104 110 1.0
105 110 0.65
119 111 1.0
120 111 0.75
125 112 1.0
126 112 0.8
131 113 1.0
132 113 0.85
137 114 1.0
138 114 1.0
143 115 1.0
144 115 1.2
153 116 1.0
154 116 1.5
154 117 -1.0
156 117 -1.0
176 117 1.0
180 117 -1.0
291 117 1.0
166 118 1.0
167 118 1.25
172 119 1.0
173 119 0.9
178 120 1.0
179 120 1.0

BCOORD
124
18 1.0
19 1.0
21 1.0
24 1.0
25 1.0
27 1.0
30 1.0
31 1.0
34 1.0
35 1.0
37 1.0
40 1.0
41 1.0
42 1.0
43 1.0
47 1.0
48 1.0
50 1.0
53 1.0
54 1.0
56 1.0
59 1.0
60 1.0
62 1.0
65 1.0
66 1.0
69 1.0
70 1.0
73 1.0
74 1.0
76 1.0
79 1.0
80 1.0
81 1.0
82 1.0
86 1.0
87 1.0
89 1.0
92 1.0
93 1.0
95 1.0
98 1.0
99 1.0
101 1.0
102 1.0
103 1.0
105 1.0
109 1.0
110 1.0
113 1.0
114 1.0
117 1.0
118 1.0
120 1.0
123 1.0
124 1.0
126 1.0
129 1.0
130 1.0
132 1.0
135 1.0
136 1.0
138 1.0
141 1.0
142 1.0
144 1.0
147 1.0
148 1.0
151 1.0
152 1.0
154 1.0
157 1.0
158 1.0
159 1.0
160 1.0
164 1.0
165 1.0
167 1.0
170 1.0
171 1.0
173 1.0
176 1.0
177 1.0
179 1.0
182 1.0
183 1.0
186 1.0
187 1.0
190 -1.0
229 40.0
241 30.0
259 20.0
261 20.0
289 30.0
304 1.0
306 1.0
308 1.0
310 1.0
312 1.0
314 1.0
316 1.0
318 1.0
320 1.0
322 1.0
324 1.0
326 1.0
328 1.0
330 1.0
332 1.0
334 1.0
336 1.0
338 1.0
340 1.0
342 1.0
344 1.0
346 1.0
348 1.0
350 1.0
352 1.0
354 1.0
356 1.0
358 1.0
360 1.0
362 1.0
